3301.86
0 18 17 8 6 9 2 1 10 5 3 4 7 16 13 21 0
0 37 34 31 44 14 22 11 15 12 27 19 0
0 41 40 33 47 46 23 26 20 24 52 25 0
0 36 39 28 30 29 58 32 35 0
0 51 55 48 38 56 62 53 59 49 45 43 42 67 60 50 0
0 72 61 57 63 54 68 64 0
0 75 73 70 71 69 77 79 66 84 86 81 85 83 65 0
0 80 76 74 88 87 0
0 98 94 91 96 90 89 93 97 82 78 0
0 92 100 0
0 95 0
